Methanol                                
   1.00000000000000     
    25.0000000000000000    0.0000000000000000    0.0000000000000000
     0.0000000000000000   25.0000000000000000    0.0000000000000000
     0.0000000000000000    0.0000000000000000   25.0000000000000000
   C    H    O 
     1     4     1
Direct
  0.9334951993794864  0.0108034302759055  0.9998386314879966
  0.9486319073205006  0.9696158593556177  0.9989058438570052
  0.9480427826963606  0.0301163105134605  0.0367981497842670
  0.8893652311063110  0.0093649426405576  0.0008690121022054
  0.9404060045813770  0.0731860497701500  0.9524149946254197
  0.9532877177159481  0.0365209046443071  0.9526600945431000
 
  0.00000000E+00  0.00000000E+00  0.00000000E+00
  0.00000000E+00  0.00000000E+00  0.00000000E+00
  0.00000000E+00  0.00000000E+00  0.00000000E+00
  0.00000000E+00  0.00000000E+00  0.00000000E+00
  0.00000000E+00  0.00000000E+00  0.00000000E+00
  0.00000000E+00  0.00000000E+00  0.00000000E+00
