C O N H                                 
   1.00000000000000     
     5.4845129088734019    0.0000000000000000    0.0000000000000000
     0.0000000000000000    5.4845129088734019    0.0000000000000000
    -0.0000000000000000    0.0000000000000000    4.6638481364787063
   C    O    N    H 
     2     2     4     8
Direct
  0.0000000000000000  0.5000000000000000  0.6745484400549228
  0.5000000000000000  0.0000000000000000  0.3254515599450772
  0.5000000000000000  0.0000000000000000  0.5999504495747069
 -0.0000000000000000  0.5000000000000000  0.4000495504253002
  0.1486390018102025  0.6486390018102025  0.8238303449980520
  0.8513609981897975  0.3513609981897975  0.8238303449980520
  0.6486390018102025  0.8513609981897975  0.1761696550019480
  0.3513609981897975  0.1486390018102025  0.1761696550019480
  0.6467526326472847  0.8532473673527153  0.9576376806351742
  0.3532473673527153  0.1467526326472847  0.9576376806351742
  0.2641274675865501  0.7641274675865501  0.7183578100757808
  0.7358725324134499  0.2358725324134499  0.7183578100757808
  0.2358725324134499  0.2641274675865501  0.2816421899242191
  0.7641274675865501  0.7358725324134499  0.2816421899242191
  0.1467526326472847  0.6467526326472847  0.0423623193648259
  0.8532473673527153  0.3532473673527153  0.0423623193648259
 
  0.00000000E+00  0.00000000E+00  0.00000000E+00
  0.00000000E+00  0.00000000E+00  0.00000000E+00
  0.00000000E+00  0.00000000E+00  0.00000000E+00
  0.00000000E+00  0.00000000E+00  0.00000000E+00
  0.00000000E+00  0.00000000E+00  0.00000000E+00
  0.00000000E+00  0.00000000E+00  0.00000000E+00
  0.00000000E+00  0.00000000E+00  0.00000000E+00
  0.00000000E+00  0.00000000E+00  0.00000000E+00
  0.00000000E+00  0.00000000E+00  0.00000000E+00
  0.00000000E+00  0.00000000E+00  0.00000000E+00
  0.00000000E+00  0.00000000E+00  0.00000000E+00
  0.00000000E+00  0.00000000E+00  0.00000000E+00
  0.00000000E+00  0.00000000E+00  0.00000000E+00
  0.00000000E+00  0.00000000E+00  0.00000000E+00
  0.00000000E+00  0.00000000E+00  0.00000000E+00
  0.00000000E+00  0.00000000E+00  0.00000000E+00
